50
2361 1032 3961 1550 666 4016 9180 8005 7652 2220 5367 2767 1727 1062 2145 9275 8290 8067 8005 1935 3099 6270 7319 8547 8801 868 6059 6718 5060 1778 4736 894 9346 8655 5477 3003 9089 5724 8824 8481 5084 4140 5990 4311 1614 3052 8126 433 464 6264 
4361 4032 5961 3550 3666 6016 12180 10005 9652 5220 7367 4767 3727 4062 4145 11275 10290 10067 10005 3935 5099 9270 9319 10547 10801 2868 8059 8718 7060 3778 6736 3894 11346 10655 7477 5003 11089 8724 10824 10481 7084 7140 7990 6311 4614 5052 10126 2433 2464 9264 
122526
